s td 33 13 45
b 1 20 24
b 2 11 13 25
b 3 14 18 21
b 4 2 14 19 33
b 5 10 29 43
b 6 10 16 44
b 7 4 15 31 38
b 8 16 17 30 37
b 9 1 7 8 10 13 14 15 17 18 27 28 38 40
b 10 7 8 10 13 14 17 18 24 27 28 40
b 11 7 10 13 14 17 18 24 27 28 30 40
b 12 13 14 18 23 24 27 28 30 40
b 13 14 19 23 24 27 28 30 40
b 14 2 14 19 24 30 40
b 15 7 10 13 16 17 24 30 40
b 16 1 7 8 10 14 15 18 26 28 38 40
b 17 1 7 8 10 15 26 28 31 38 40
b 18 1 8 9 10 15 26 28 31 40
b 19 1 3 8 9 10 15 28 31
b 20 3 8 9 10 22 28 31
b 21 6 8 9 10 22
b 22 1 7 8 10 14 17 18 27 28 29 38 40
b 23 1 5 7 8 14 17 18 28 29 38 40
b 24 1 5 7 8 14 18 28 29 40 41
b 25 12 14 18 28 41
b 26 1 28 29 34 41
b 27 1 29 32 34
b 28 5 7 8 39 41
b 29 1 10 13 14 15 17 40 45
b 30 1 13 14 17 40 42 45
b 31 1 13 25 40 42 45
b 32 35
b 33 36
1 10
1 32
1 33
2 31
3 9
4 14
5 22
6 15
7 17
8 15
9 10
9 16
9 22
9 29
10 11
11 12
11 15
12 13
13 14
16 17
17 18
18 19
19 20
20 21
22 23
23 24
24 25
24 26
24 28
26 27
29 30
30 31
